1420
71 4 41 18 80 20 38 88 58 29 34 97 86 91 57 26 99 55 39 44 6 33 17 56 36 67 21 72 48 62 85 13 3 8 14 82 28 98 24 79 9 19 69 60 31 49 10 43 59 66 89 92 83 96 23 64 40 27 94 12 53 93 32 37 50 45 52 75 30 11 46 87 25 70 73 2 51 95 35 54 5 42 16 63 22 77 47 1 65 15 68 76 84 7 74 90 61 81 78 
